1 -1 0
h 2 -3 0
h -4 5 0
1 -6 0
h -6 7 0
1 -7 0
h 2 8 0
h -2 1 0
h 7 6 0
h -2 -8 0
h 9 10 0
1 -11 0
1 -6 0
h 4 -6 0
h 6 8 0
h -8 3 0
h -10 9 0
h 4 5 0
h -10 -9 0
h -9 6 2 0
h -6 11 0
h -8 -6 0
1 -5 0
1 -2 0
